c Maximum weighted clique instances generated from exactcolors.
c cutoff: 3243933.
c A clique of value > scalef (3243933) defines an improving stable sets for coloring.
p edge 17 95
e 1 2
e 1 6
e 1 7
e 1 8
e 1 10
e 1 12
e 1 13
e 1 14
e 1 15
e 1 16
e 1 17
e 2 6
e 2 7
e 2 9
e 2 10
e 2 11
e 2 13
e 2 14
e 2 15
e 2 16
e 2 17
e 3 4
e 3 5
e 3 6
e 3 7
e 3 8
e 3 9
e 3 10
e 3 12
e 3 13
e 3 14
e 3 17
e 4 5
e 4 8
e 4 9
e 4 10
e 4 11
e 4 12
e 4 13
e 4 14
e 4 15
e 4 16
e 4 17
e 5 6
e 5 7
e 5 8
e 5 10
e 5 11
e 5 13
e 5 14
e 5 15
e 5 16
e 6 8
e 6 9
e 6 11
e 6 12
e 6 14
e 6 15
e 7 8
e 7 9
e 7 11
e 7 12
e 7 14
e 7 15
e 8 10
e 8 12
e 8 15
e 8 16
e 8 17
e 9 11
e 9 12
e 9 13
e 9 14
e 9 16
e 9 17
e 10 12
e 10 13
e 10 14
e 10 15
e 10 16
e 10 17
e 11 12
e 11 13
e 11 15
e 11 16
e 11 17
e 12 16
e 12 17
e 13 14
e 13 15
e 13 16
e 13 17
e 14 17
e 15 16
e 16 17
n 1 540655
n 2 540655
n 3 540655
n 4 540655
n 5 540655
n 6 1621966
n 7 1621966
n 8 540655
n 9 540655
n 10 540655
n 11 540655
n 12 540655
n 13 540655
n 14 540655
n 15 540655
n 16 540655
n 17 540655
